certificates/rado_a9_c53_N16.cnf
c Rad2 upper bound instance: x1 + 9*x2 - x3 = 53, interval [1,16]
p cnf 16 56
1 2 6 0
-1 -2 -6 0
1 7 11 0
-1 -7 -11 0
2 3 6 0
-2 -3 -6 0
2 7 12 0
-2 -7 -12 0
3 4 6 0
-3 -4 -6 0
3 7 13 0
-3 -7 -13 0
4 5 6 0
-4 -5 -6 0
4 7 14 0
-4 -7 -14 0
5 6 0
-5 -6 0
5 7 15 0
-5 -7 -15 0
6 7 0
-6 -7 0
6 7 16 0
-6 -7 -16 0
6 7 8 0
-6 -7 -8 0
6 8 9 0
-6 -8 -9 0
1 5 9 0
-1 -5 -9 0
6 9 10 0
-6 -9 -10 0
2 5 10 0
-2 -5 -10 0
6 10 11 0
-6 -10 -11 0
3 5 11 0
-3 -5 -11 0
6 11 12 0
-6 -11 -12 0
4 5 12 0
-4 -5 -12 0
6 12 13 0
-6 -12 -13 0
5 13 0
-5 -13 0
6 13 14 0
-6 -13 -14 0
5 6 14 0
-5 -6 -14 0
6 14 15 0
-6 -14 -15 0
6 15 16 0
-6 -15 -16 0
5 8 16 0
-5 -8 -16 0
