certificates/rado_a9_c53_N16.drat
-15 -16 0
d -15 -6 -16 0
-7 -16 0
7 15 0
d 7 5 15 0
-16 0
7 0
-6 0
5 0
15 0
-13 0
0
